50
1 0 31
2 0 55
2 1 56
3 0 35
3 1 1
3 2 26
4 0 8
4 1 24
4 2 30
4 3 11
5 0 45
5 1 35
5 2 37
5 3 44
5 4 36
6 0 45
6 1 3
6 2 14
6 3 13
6 4 13
6 5 2
7 0 36
7 1 18
7 2 12
7 3 12
7 4 40
7 5 52
7 6 6
8 0 50
8 1 33
8 2 48
8 3 8
8 4 12
8 5 27
8 6 51
8 7 3
9 0 32
9 1 39
9 2 56
9 3 6
9 4 10
9 5 27
9 6 1
9 7 5
9 8 16
10 0 44
10 1 13
10 2 22
10 3 32
10 4 31
10 5 12
10 6 3
10 7 56
10 8 14
10 9 48
11 0 35
11 1 53
11 2 7
11 3 5
11 4 5
11 5 53
11 6 44
11 7 8
11 8 17
11 9 20
11 10 20
12 0 21
12 1 31
12 2 9
12 3 38
12 4 9
12 5 10
12 6 6
12 7 40
12 8 37
12 9 44
12 10 27
12 11 16
13 0 42
13 1 38
13 2 56
13 3 11
13 4 5
13 5 20
13 6 20
13 7 48
13 8 48
13 9 52
13 10 55
13 11 8
13 12 21
14 0 14
14 1 19
14 2 23
14 3 19
14 4 8
14 5 27
14 6 20
14 7 31
14 8 15
14 9 22
14 10 21
14 11 54
14 12 30
14 13 1
15 0 57
15 1 11
15 2 33
15 3 45
15 4 52
15 5 49
15 6 17
15 7 20
15 8 51
15 9 26
15 10 30
15 11 55
15 12 2
15 13 18
15 14 28
16 0 3
16 1 25
16 2 25
16 3 27
16 4 38
16 5 40
16 6 46
16 7 51
16 8 40
16 9 50
16 10 23
16 11 48
16 12 22
16 13 22
16 14 28
16 15 30
17 0 19
17 1 24
17 2 22
17 3 20
17 4 56
17 5 41
17 6 5
17 7 28
17 8 32
17 9 32
17 10 30
17 11 22
17 12 25
17 13 39
17 14 52
17 15 14
17 16 57
18 0 11
18 1 53
18 2 31
18 3 2
18 4 47
18 5 28
18 6 15
18 7 21
18 8 4
18 9 15
18 10 16
18 11 27
18 12 1
18 13 19
18 14 7
18 15 46
18 16 56
18 17 38
19 0 47
19 1 33
19 2 12
19 3 10
19 4 1
19 5 53
19 6 15
19 7 35
19 8 9
19 9 48
19 10 45
19 11 28
19 12 37
19 13 6
19 14 1
19 15 1
19 16 10
19 17 27
19 18 50
20 0 25
20 1 31
20 2 25
20 3 43
20 4 19
20 5 3
20 6 30
20 7 16
20 8 1
20 9 46
20 10 1
20 11 38
20 12 45
20 13 41
20 14 19
20 15 22
20 16 45
20 17 11
20 18 45
20 19 18
21 0 39
21 1 31
21 2 3
21 3 36
21 4 36
21 5 42
21 6 48
21 7 57
21 8 50
21 9 3
21 10 35
21 11 55
21 12 13
21 13 36
21 14 10
21 15 27
21 16 13
21 17 5
21 18 36
21 19 54
21 20 31
22 0 39
22 1 50
22 2 26
22 3 16
22 4 40
22 5 48
22 6 43
22 7 50
22 8 55
22 9 53
22 10 19
22 11 52
22 12 40
22 13 27
22 14 44
22 15 8
22 16 10
22 17 15
22 18 46
22 19 16
22 20 50
22 21 8
23 0 16
23 1 36
23 2 2
23 3 32
23 4 37
23 5 30
23 6 46
23 7 32
23 8 35
23 9 52
23 10 28
23 11 14
23 12 22
23 13 56
23 14 27
23 15 57
23 16 20
23 17 20
23 18 54
23 19 9
23 20 12
23 21 10
23 22 20
24 0 24
24 1 2
24 2 36
24 3 16
24 4 34
24 5 35
24 6 4
24 7 20
24 8 18
24 9 57
24 10 3
24 11 53
24 12 51
24 13 24
24 14 16
24 15 11
24 16 20
24 17 37
24 18 41
24 19 35
24 20 20
24 21 34
24 22 38
24 23 44
25 0 35
25 1 47
25 2 30
25 3 21
25 4 50
25 5 10
25 6 34
25 7 42
25 8 42
25 9 36
25 10 1
25 11 3
25 12 43
25 13 12
25 14 41
25 15 13
25 16 33
25 17 26
25 18 5
25 19 9
25 20 14
25 21 49
25 22 33
25 23 45
25 24 44
26 0 18
26 1 34
26 2 10
26 3 24
26 4 15
26 5 24
26 6 23
26 7 48
26 8 23
26 9 39
26 10 12
26 11 30
26 12 46
26 13 3
26 14 40
26 15 15
26 16 6
26 17 3
26 18 12
26 19 49
26 20 57
26 21 51
26 22 22
26 23 56
26 24 3
26 25 5
27 0 19
27 1 7
27 2 48
27 3 57
27 4 43
27 5 50
27 6 40
27 7 46
27 8 57
27 9 7
27 10 44
27 11 17
27 12 16
27 13 45
27 14 55
27 15 33
27 16 11
27 17 12
27 18 6
27 19 43
27 20 41
27 21 25
27 22 23
27 23 50
27 24 11
27 25 46
27 26 3
28 0 53
28 1 47
28 2 46
28 3 23
28 4 37
28 5 42
28 6 48
28 7 11
28 8 16
28 9 47
28 10 34
28 11 49
28 12 43
28 13 38
28 14 12
28 15 36
28 16 47
28 17 28
28 18 2
28 19 4
28 20 3
28 21 42
28 22 10
28 23 27
28 24 45
28 25 48
28 26 43
28 27 52
29 0 31
29 1 13
29 2 45
29 3 5
29 4 22
29 5 38
29 6 3
29 7 14
29 8 8
29 9 31
29 10 9
29 11 39
29 12 38
29 13 26
29 14 10
29 15 45
29 16 28
29 17 32
29 18 52
29 19 31
29 20 27
29 21 13
29 22 8
29 23 56
29 24 24
29 25 9
29 26 18
29 27 44
29 28 30
30 0 50
30 1 21
30 2 27
30 3 30
30 4 21
30 5 44
30 6 33
30 7 33
30 8 14
30 9 54
30 10 35
30 11 16
30 12 36
30 13 47
30 14 2
30 15 35
30 16 43
30 17 43
30 18 24
30 19 17
30 20 49
30 21 33
30 22 28
30 23 17
30 24 54
30 25 9
30 26 37
30 27 7
30 28 30
30 29 46
31 0 21
31 1 19
31 2 17
31 3 32
31 4 24
31 5 15
31 6 26
31 7 5
31 8 41
31 9 6
31 10 5
31 11 32
31 12 41
31 13 35
31 14 45
31 15 56
31 16 56
31 17 12
31 18 35
31 19 53
31 20 42
31 21 10
31 22 37
31 23 10
31 24 37
31 25 18
31 26 18
31 27 14
31 28 50
31 29 14
31 30 46
32 0 27
32 1 8
32 2 53
32 3 19
32 4 18
32 5 34
32 6 41
32 7 14
32 8 54
32 9 28
32 10 21
32 11 57
32 12 12
32 13 6
32 14 6
32 15 39
32 16 49
32 17 18
32 18 43
32 19 34
32 20 11
32 21 42
32 22 24
32 23 48
32 24 46
32 25 32
32 26 13
32 27 13
32 28 6
32 29 10
32 30 55
32 31 49
33 0 29
33 1 29
33 2 4
33 3 56
33 4 47
33 5 23
33 6 50
33 7 23
33 8 56
33 9 39
33 10 9
33 11 2
33 12 9
33 13 34
33 14 33
33 15 49
33 16 11
33 17 49
33 18 16
33 19 6
33 20 32
33 21 28
33 22 6
33 23 17
33 24 13
33 25 1
33 26 43
33 27 52
33 28 32
33 29 53
33 30 10
33 31 25
33 32 50
34 0 27
34 1 54
34 2 3
34 3 3
34 4 50
34 5 15
34 6 26
34 7 42
34 8 52
34 9 6
34 10 33
34 11 54
34 12 20
34 13 19
34 14 47
34 15 46
34 16 31
34 17 5
34 18 20
34 19 2
34 20 10
34 21 35
34 22 47
34 23 24
34 24 12
34 25 19
34 26 54
34 27 6
34 28 22
34 29 56
34 30 17
34 31 49
34 32 37
34 33 47
35 0 8
35 1 10
35 2 33
35 3 31
35 4 56
35 5 15
35 6 38
35 7 16
35 8 21
35 9 6
35 10 55
35 11 39
35 12 1
35 13 6
35 14 24
35 15 14
35 16 23
35 17 11
35 18 5
35 19 11
35 20 10
35 21 6
35 22 40
35 23 31
35 24 10
35 25 23
35 26 38
35 27 12
35 28 7
35 29 36
35 30 18
35 31 29
35 32 44
35 33 16
35 34 46
36 0 56
36 1 27
36 2 32
36 3 20
36 4 38
36 5 26
36 6 31
36 7 20
36 8 22
36 9 54
36 10 37
36 11 42
36 12 10
36 13 12
36 14 39
36 15 41
36 16 31
36 17 9
36 18 14
36 19 28
36 20 38
36 21 54
36 22 46
36 23 47
36 24 57
36 25 37
36 26 44
36 27 23
36 28 51
36 29 18
36 30 40
36 31 28
36 32 55
36 33 28
36 34 13
36 35 18
37 0 42
37 1 21
37 2 13
37 3 53
37 4 15
37 5 4
37 6 37
37 7 51
37 8 8
37 9 34
37 10 42
37 11 41
37 12 11
37 13 34
37 14 38
37 15 1
37 16 14
37 17 53
37 18 53
37 19 48
37 20 14
37 21 39
37 22 44
37 23 31
37 24 28
37 25 6
37 26 41
37 27 16
37 28 37
37 29 38
37 30 50
37 31 47
37 32 56
37 33 2
37 34 32
37 35 32
37 36 41
38 0 57
38 1 31
38 2 30
38 3 46
38 4 21
38 5 43
38 6 57
38 7 12
38 8 22
38 9 26
38 10 10
38 11 34
38 12 17
38 13 8
38 14 41
38 15 12
38 16 4
38 17 34
38 18 8
38 19 56
38 20 25
38 21 56
38 22 32
38 23 19
38 24 38
38 25 42
38 26 11
38 27 23
38 28 47
38 29 1
38 30 35
38 31 15
38 32 20
38 33 26
38 34 29
38 35 41
38 36 17
38 37 44
39 0 38
39 1 32
39 2 30
39 3 33
39 4 23
39 5 17
39 6 39
39 7 8
39 8 26
39 9 2
39 10 44
39 11 13
39 12 20
39 13 41
39 14 31
39 15 4
39 16 28
39 17 6
39 18 19
39 19 10
39 20 42
39 21 4
39 22 38
39 23 36
39 24 55
39 25 1
39 26 54
39 27 46
39 28 3
39 29 53
39 30 9
39 31 4
39 32 12
39 33 47
39 34 10
39 35 24
39 36 38
39 37 45
39 38 15
40 0 25
40 1 5
40 2 12
40 3 51
40 4 8
40 5 5
40 6 15
40 7 42
40 8 3
40 9 3
40 10 19
40 11 35
40 12 12
40 13 46
40 14 38
40 15 55
40 16 29
40 17 5
40 18 16
40 19 41
40 20 46
40 21 34
40 22 24
40 23 43
40 24 36
40 25 20
40 26 31
40 27 34
40 28 15
40 29 29
40 30 51
40 31 42
40 32 52
40 33 43
40 34 12
40 35 43
40 36 50
40 37 10
40 38 54
40 39 19
41 0 57
41 1 2
41 2 11
41 3 37
41 4 1
41 5 51
41 6 57
41 7 41
41 8 26
41 9 1
41 10 2
41 11 46
41 12 55
41 13 1
41 14 40
41 15 56
41 16 40
41 17 13
41 18 50
41 19 18
41 20 49
41 21 4
41 22 16
41 23 20
41 24 20
41 25 38
41 26 54
41 27 46
41 28 32
41 29 14
41 30 21
41 31 45
41 32 27
41 33 8
41 34 11
41 35 47
41 36 32
41 37 34
41 38 30
41 39 28
41 40 21
42 0 25
42 1 30
42 2 32
42 3 37
42 4 30
42 5 20
42 6 46
42 7 20
42 8 17
42 9 7
42 10 4
42 11 55
42 12 8
42 13 4
42 14 1
42 15 55
42 16 13
42 17 19
42 18 46
42 19 27
42 20 48
42 21 52
42 22 36
42 23 8
42 24 51
42 25 42
42 26 42
42 27 56
42 28 35
42 29 53
42 30 28
42 31 51
42 32 38
42 33 40
42 34 33
42 35 37
42 36 41
42 37 29
42 38 19
42 39 55
42 40 28
42 41 8
43 0 46
43 1 45
43 2 10
43 3 21
43 4 13
43 5 52
43 6 54
43 7 45
43 8 41
43 9 28
43 10 25
43 11 20
43 12 30
43 13 13
43 14 48
43 15 35
43 16 13
43 17 15
43 18 51
43 19 33
43 20 31
43 21 49
43 22 42
43 23 48
43 24 43
43 25 35
43 26 39
43 27 22
43 28 47
43 29 43
43 30 8
43 31 2
43 32 48
43 33 39
43 34 18
43 35 40
43 36 12
43 37 49
43 38 33
43 39 46
43 40 50
43 41 41
43 42 25
44 0 16
44 1 21
44 2 6
44 3 23
44 4 33
44 5 30
44 6 39
44 7 32
44 8 5
44 9 13
44 10 50
44 11 21
44 12 2
44 13 17
44 14 39
44 15 55
44 16 49
44 17 44
44 18 20
44 19 5
44 20 34
44 21 43
44 22 28
44 23 25
44 24 40
44 25 47
44 26 27
44 27 8
44 28 26
44 29 49
44 30 53
44 31 15
44 32 41
44 33 12
44 34 46
44 35 2
44 36 47
44 37 8
44 38 20
44 39 57
44 40 52
44 41 43
44 42 48
44 43 4
45 0 42
45 1 43
45 2 55
45 3 34
45 4 57
45 5 48
45 6 17
45 7 37
45 8 47
45 9 28
45 10 13
45 11 11
45 12 28
45 13 41
45 14 57
45 15 47
45 16 53
45 17 38
45 18 11
45 19 20
45 20 36
45 21 21
45 22 30
45 23 13
45 24 33
45 25 54
45 26 45
45 27 50
45 28 45
45 29 9
45 30 25
45 31 4
45 32 14
45 33 3
45 34 3
45 35 8
45 36 31
45 37 56
45 38 35
45 39 40
45 40 29
45 41 23
45 42 31
45 43 57
45 44 16
46 0 15
46 1 44
46 2 12
46 3 4
46 4 39
46 5 18
46 6 9
46 7 24
46 8 24
46 9 10
46 10 29
46 11 33
46 12 14
46 13 21
46 14 8
46 15 16
46 16 11
46 17 44
46 18 27
46 19 17
46 20 29
46 21 36
46 22 43
46 23 27
46 24 23
46 25 16
46 26 40
46 27 42
46 28 13
46 29 12
46 30 8
46 31 52
46 32 36
46 33 40
46 34 9
46 35 51
46 36 40
46 37 24
46 38 16
46 39 30
46 40 14
46 41 54
46 42 27
46 43 35
46 44 43
46 45 56
47 0 7
47 1 21
47 2 27
47 3 43
47 4 11
47 5 34
47 6 52
47 7 53
47 8 10
47 9 29
47 10 39
47 11 43
47 12 39
47 13 24
47 14 10
47 15 45
47 16 40
47 17 21
47 18 48
47 19 50
47 20 52
47 21 7
47 22 54
47 23 28
47 24 20
47 25 50
47 26 4
47 27 44
47 28 49
47 29 5
47 30 37
47 31 24
47 32 27
47 33 53
47 34 23
47 35 42
47 36 2
47 37 18
47 38 28
47 39 15
47 40 44
47 41 39
47 42 41
47 43 35
47 44 18
47 45 46
47 46 53
48 0 1
48 1 40
48 2 18
48 3 44
48 4 3
48 5 3
48 6 43
48 7 12
48 8 49
48 9 13
48 10 28
48 11 28
48 12 53
48 13 32
48 14 31
48 15 36
48 16 2
48 17 17
48 18 16
48 19 17
48 20 2
48 21 39
48 22 33
48 23 1
48 24 34
48 25 32
48 26 49
48 27 43
48 28 55
48 29 54
48 30 5
48 31 38
48 32 24
48 33 2
48 34 34
48 35 8
48 36 12
48 37 37
48 38 29
48 39 40
48 40 43
48 41 51
48 42 53
48 43 26
48 44 29
48 45 35
48 46 8
48 47 51
49 0 8
49 1 5
49 2 41
49 3 22
49 4 24
49 5 45
49 6 8
49 7 41
49 8 5
49 9 16
49 10 15
49 11 29
49 12 1
49 13 34
49 14 47
49 15 6
49 16 47
49 17 34
49 18 47
49 19 37
49 20 3
49 21 12
49 22 27
49 23 14
49 24 47
49 25 31
49 26 53
49 27 23
49 28 57
49 29 16
49 30 15
49 31 10
49 32 40
49 33 46
49 34 2
49 35 44
49 36 37
49 37 54
49 38 43
49 39 27
49 40 33
49 41 20
49 42 55
49 43 6
49 44 38
49 45 2
49 46 32
49 47 31
49 48 49
